152 5
3 3 3 3 3
0  0 0 0 0 0  30 2 7 12 17 22 27 32 37 42 47 52 57 62 67 72 77 82 87 92 97 102 107 112 117 122 127 132 137 142 147
72  0 1 0 0 0  1 3
87  1 0 0 0 0  1 4
95  0 0 0 0 1  1 5
66  0 0 1 0 0  1 6
60  0 0 0 1 0  1 152
5  0 0 0 0 1  1 8
35  0 0 0 1 0  1 9
48  1 0 0 0 0  1 10
39  0 0 1 0 0  1 11
54  0 1 0 0 0  1 152
46  0 1 0 0 0  1 13
20  0 0 0 1 0  1 14
21  0 0 1 0 0  1 15
97  1 0 0 0 0  1 16
55  0 0 0 0 1  1 152
59  1 0 0 0 0  1 18
19  0 0 0 1 0  1 19
46  0 0 0 0 1  1 20
34  0 1 0 0 0  1 21
37  0 0 1 0 0  1 152
23  0 0 0 0 1  1 23
73  0 0 1 0 0  1 24
25  0 0 0 1 0  1 25
24  0 1 0 0 0  1 26
28  1 0 0 0 0  1 152
28  0 0 0 1 0  1 28
45  1 0 0 0 0  1 29
5  0 0 0 0 1  1 30
78  0 1 0 0 0  1 31
83  0 0 1 0 0  1 152
53  1 0 0 0 0  1 33
71  0 0 0 1 0  1 34
37  0 1 0 0 0  1 35
29  0 0 0 0 1  1 36
12  0 0 1 0 0  1 152
12  0 0 0 0 1  1 38
87  0 0 1 0 0  1 39
33  0 0 0 1 0  1 40
55  0 1 0 0 0  1 41
38  1 0 0 0 0  1 152
49  0 0 1 0 0  1 43
83  0 0 0 1 0  1 44
40  0 1 0 0 0  1 45
48  1 0 0 0 0  1 46
7  0 0 0 0 1  1 152
65  0 0 1 0 0  1 48
17  0 0 0 1 0  1 49
90  1 0 0 0 0  1 50
27  0 0 0 0 1  1 51
23  0 1 0 0 0  1 152
72  0 1 0 0 0  1 53
87  1 0 0 0 0  1 54
95  0 0 0 0 1  1 55
66  0 0 1 0 0  1 56
60  0 0 0 1 0  1 152
5  0 0 0 0 1  1 58
35  0 0 0 1 0  1 59
48  1 0 0 0 0  1 60
39  0 0 1 0 0  1 61
54  0 1 0 0 0  1 152
46  0 1 0 0 0  1 63
20  0 0 0 1 0  1 64
21  0 0 1 0 0  1 65
97  1 0 0 0 0  1 66
55  0 0 0 0 1  1 152
59  1 0 0 0 0  1 68
19  0 0 0 1 0  1 69
46  0 0 0 0 1  1 70
34  0 1 0 0 0  1 71
37  0 0 1 0 0  1 152
23  0 0 0 0 1  1 73
73  0 0 1 0 0  1 74
25  0 0 0 1 0  1 75
24  0 1 0 0 0  1 76
28  1 0 0 0 0  1 152
28  0 0 0 1 0  1 78
45  1 0 0 0 0  1 79
5  0 0 0 0 1  1 80
78  0 1 0 0 0  1 81
83  0 0 1 0 0  1 152
53  1 0 0 0 0  1 83
71  0 0 0 1 0  1 84
37  0 1 0 0 0  1 85
29  0 0 0 0 1  1 86
12  0 0 1 0 0  1 152
12  0 0 0 0 1  1 88
87  0 0 1 0 0  1 89
33  0 0 0 1 0  1 90
55  0 1 0 0 0  1 91
38  1 0 0 0 0  1 152
49  0 0 1 0 0  1 93
83  0 0 0 1 0  1 94
40  0 1 0 0 0  1 95
48  1 0 0 0 0  1 96
7  0 0 0 0 1  1 152
65  0 0 1 0 0  1 98
17  0 0 0 1 0  1 99
90  1 0 0 0 0  1 100
27  0 0 0 0 1  1 101
23  0 1 0 0 0  1 152
72  0 1 0 0 0  1 103
87  1 0 0 0 0  1 104
95  0 0 0 0 1  1 105
66  0 0 1 0 0  1 106
60  0 0 0 1 0  1 152
5  0 0 0 0 1  1 108
35  0 0 0 1 0  1 109
48  1 0 0 0 0  1 110
39  0 0 1 0 0  1 111
54  0 1 0 0 0  1 152
46  0 1 0 0 0  1 113
20  0 0 0 1 0  1 114
21  0 0 1 0 0  1 115
97  1 0 0 0 0  1 116
55  0 0 0 0 1  1 152
59  1 0 0 0 0  1 118
19  0 0 0 1 0  1 119
46  0 0 0 0 1  1 120
34  0 1 0 0 0  1 121
37  0 0 1 0 0  1 152
23  0 0 0 0 1  1 123
73  0 0 1 0 0  1 124
25  0 0 0 1 0  1 125
24  0 1 0 0 0  1 126
28  1 0 0 0 0  1 152
28  0 0 0 1 0  1 128
45  1 0 0 0 0  1 129
5  0 0 0 0 1  1 130
78  0 1 0 0 0  1 131
83  0 0 1 0 0  1 152
53  1 0 0 0 0  1 133
71  0 0 0 1 0  1 134
37  0 1 0 0 0  1 135
29  0 0 0 0 1  1 136
12  0 0 1 0 0  1 152
12  0 0 0 0 1  1 138
87  0 0 1 0 0  1 139
33  0 0 0 1 0  1 140
55  0 1 0 0 0  1 141
38  1 0 0 0 0  1 152
49  0 0 1 0 0  1 143
83  0 0 0 1 0  1 144
40  0 1 0 0 0  1 145
48  1 0 0 0 0  1 146
7  0 0 0 0 1  1 152
65  0 0 1 0 0  1 148
17  0 0 0 1 0  1 149
90  1 0 0 0 0  1 150
27  0 0 0 0 1  1 151
23  0 1 0 0 0  1 152
0  0 0 0 0 0  0
